20	5
0	11	8	1	4	3	9	2	5	18	16	10	14
1	0
2	5	11	15	12	20	17
3	0
4	2	6	16
5	0
6	1	7
7	1	13
8	1	21
9	2	15	19
10	1	5
11	1	21
12	1	21
13	1	21
14	2	21	1
15	1	21
16	1	21
17	1	21
18	1	21
19	1	21
20	1	21
21	0
0	0	0	0	0	0	0
1	7	2	3	0	0	2
2	10	0	5	0	0	0
3	8	2	0	0	0	3
4	2	0	0	3	5	0
5	3	2	0	0	1	0
6	8	2	0	0	0	0
7	5	0	1	0	0	0
8	8	4	2	3	4	4
9	10	0	4	3	0	0
10	7	2	3	0	5	0
11	1	2	3	2	2	5
12	1	2	1	0	0	0
13	9	0	1	1	4	5
14	5	5	1	4	2	5
15	1	0	0	4	3	0
16	3	4	5	3	0	0
17	5	4	0	0	0	5
18	6	0	0	0	0	1
19	9	0	2	0	3	0
20	6	1	0	2	0	0
21	0	0	0	0	0	0
5	5	5	5	5
